100
32
21
12
4
27
26
15
27
29
11
28
1
25
14
1
9
8
7
1
5
1
3
21
11
8
24
13
21
15
2
10
10
15
14
12
9
10
1
1
18
26
5
17
2
3
2
3
7
2
2
1
16
17
17
11
2
2
18
4
9
8
3
2
4
2
5
19
18
6
17
19
11
2
5
5
4
4
2
3
1
4
2
4
1
17
6
1
1
3
18
3
3
2
4
2
7
2
4
1
17
1